ObjectiveValue = 2580.13012144;
flow=[(1,6,3)(5,0,0)(5,1,0)(5,2,0)(5,4,0)(5,6,14)(5,8,0)(5,9,0)(5,10,0)(5,11,0)(5,12,0)(5,13,0)(6,5,8)(6,10,7)(6,11,17)(7,6,2)(8,9,1)(10,6,4)(10,9,4)(11,5,2)(11,6,9)(11,8,1)(11,10,1)(12,1,1)(12,5,4)(12,6,7)(12,9,1)(12,10,1)(12,11,3)(12,13,2)];
